NAME : mEgtspf.pid38966.gtsp.161061417.tour
COMMENT : Length = 161061417
COMMENT : Found by LKH [Keld Helsgaun] Sat Mar 22 15:52:40 2025
TYPE : TOUR
DIMENSION : 90
TOUR_SECTION
1
10
9
29
30
27
28
16
17
18
15
3
55
56
57
58
8
19
20
21
22
75
76
77
78
7
14
11
12
13
83
84
85
86
25
26
23
24
6
5
53
54
51
52
44
45
46
43
89
90
87
88
73
74
71
72
42
39
40
41
69
70
67
68
80
81
82
79
4
35
36
37
38
50
47
48
49
31
32
33
34
66
63
64
65
2
61
62
59
60
-1
EOF
